\ LP format - for model browsing. Use MPS format to capture full model detail.
Minimize
  0 B18(0) + 0 B20(0) + 0 B26(0) + 0 B28(0) + 0 B32(0) + 0 B36(0) + 0 B38(0)
   + 0 B39(0) + 0 B42(0) + 0 B45(0) + 0 B46(0) + 0 B47(0) + 0 B48(0)
   + 0 B53(0) + 0 B54(0) + 0 B55(0) + 0 B56(0) + 0 B58(0) + 0 B59(0)
   + 0 B63(0) + 0 B64(0) + 0 B65(0) + 0 B67(0) + 0 B68(0) + 0 B72(0)
   + 0 B73(0) + 0 B74(0) + 0 B75(0) + 0 B76(0) + 0 B77(0) + 0 B78(0)
   + 0 B80(0) + 0 B81(0) + 0 B82(0) + 0 B83(0) + 0 B84(0) + 0 B85(0)
   + 0 B86(0) + 0 B88(0) + 0 B90(0) + 0 B91(0) + 0 B92(0) + 0 B93(0)
   + 0 B94(0) + 0 B95(0) + 0 B96(0) + 0 B98(0) + I117(1)
Subject To
 c0: - 160 B0(11) - 150 B1(13) - 65 B6(13) - 78 B7(13) - 100 B12(13)
   - 90 B13(11) - I99(12) - I100(14) - I105(14) - I106(14) - I111(14)
   - I112(12) + I117(1) >= 0
 c1: B0(11) + B1(13) = 1
 c2: B2(13) + B3(13) = 1
 c3: B4(8) + B5(14) = 1
 c4: B6(13) + B7(13) = 1
 c5: B8(11) + B9(13) = 1
 c6: B10(8) + B11(14) = 1
 c7: B12(13) + B13(11) = 1
 c8: B14(13) + B15(13) = 1
 c9: B16(8) + B17(14) = 1
 c10: - 1e+07 B0(11) + I99(12) <= 0
 c11: - 1e+07 B1(13) + I100(14) <= 0
 c12: - 1e+07 B2(13) + I101(14) <= 0
 c13: - 1e+07 B3(13) + I102(14) <= 0
 c14: - 1e+07 B4(8) + I103(8) <= 0
 c15: - 1e+07 B5(14) + I104(14) <= 0
 c16: - 1e+07 B6(13) + I105(14) <= 0
 c17: - 1e+07 B7(13) + I106(14) <= 0
 c18: - 1e+07 B8(11) + I107(12) <= 0
 c19: - 1e+07 B9(13) + I108(14) <= 0
 c20: - 1e+07 B10(8) + I109(8) <= 0
 c21: - 1e+07 B11(14) + I110(14) <= 0
 c22: - 1e+07 B12(13) + I111(14) <= 0
 c23: - 1e+07 B13(11) + I112(12) <= 0
 c24: - 1e+07 B14(13) + I113(14) <= 0
 c25: - 1e+07 B15(13) + I114(14) <= 0
 c26: - 1e+07 B16(8) + I115(8) <= 0
 c27: - 1e+07 B17(14) + I116(14) <= 0
 c28: - 30 B2(13) - 40 B3(13) + I99(12) + I100(14) - I101(14) - I102(14)
   >= 0
 c29: - 17 B4(8) - 25 B5(14) + I101(14) + I102(14) - I103(8) - I104(14)
   >= 0
 c30: - 66 B8(11) - 55 B9(13) + I105(14) + I106(14) - I107(12) - I108(14)
   >= 0
 c31: - 30 B10(8) - 50 B11(14) + I107(12) + I108(14) - I109(8) - I110(14)
   >= 0
 c32: - 70 B14(13) - 80 B15(13) + I111(14) + I112(12) - I113(14) - I114(14)
   >= 0
 c33: - 56 B16(8) - 62 B17(14) + I113(14) + I114(14) - I115(8) - I116(14)
   >= 0
 c34: - 1e+07 B1(13) - 1e+07 B3(13) + 1e+07 B19(2) - I100(14) + I102(14)
   >= -1.9999694e+07
 c35: - 1e+07 B1(13) - 1e+07 B3(13) - 1e+07 B19(2) + I100(14) - I102(14)
   >= -2.9999768e+07
 c36: - 1e+07 B0(11) - 1e+07 B6(13) + 1e+07 B21(4) - I99(12) + I105(14)
   >= -1.9999452e+07
 c37: - 1e+07 B0(11) - 1e+07 B6(13) - 1e+07 B21(4) + I99(12) - I105(14)
   >= -2.9999315e+07
 c38: - 1e+07 B1(13) - 1e+07 B7(13) + 1e+07 B21(4) - I100(14) + I106(14)
   >= -1.9999505e+07
 c39: - 1e+07 B1(13) - 1e+07 B7(13) - 1e+07 B21(4) + I100(14) - I106(14)
   >= -2.9999863e+07
 c40: - 1e+07 B1(13) - 1e+07 B9(13) + 1e+07 B22(2) - I100(14) + I108(14)
   >= -1.999975e+07
 c41: - 1e+07 B1(13) - 1e+07 B9(13) - 1e+07 B22(2) + I100(14) - I108(14)
   >= -2.9999805e+07
 c42: - 1e+07 B0(11) - 1e+07 B11(14) + 1e+07 B23(2) - I99(12) + I110(14)
   >= -1.9999603e+07
 c43: - 1e+07 B0(11) - 1e+07 B11(14) - 1e+07 B23(2) + I99(12) - I110(14)
   >= -2.9999662e+07
 c44: - 1e+07 B0(11) - 1e+07 B12(13) + 1e+07 B24(4) - I99(12) + I111(14)
   >= -1.9999185e+07
 c45: - 1e+07 B0(11) - 1e+07 B12(13) - 1e+07 B24(4) + I99(12) - I111(14)
   >= -2.9999726e+07
 c46: - 1e+07 B1(13) - 1e+07 B13(11) + 1e+07 B24(4) - I100(14) + I112(12)
   >= -1.9999813e+07
 c47: - 1e+07 B1(13) - 1e+07 B13(11) - 1e+07 B24(4) + I100(14) - I112(12)
   >= -2.9999642e+07
 c48: - 1e+07 B0(11) - 1e+07 B15(13) + 1e+07 B25(2) - I99(12) + I114(14)
   >= -1.9999366e+07
 c49: - 1e+07 B0(11) - 1e+07 B15(13) - 1e+07 B25(2) + I99(12) - I114(14)
   >= -2.999969e+07
 c50: - 1e+07 B1(13) - 1e+07 B3(13) + 1e+07 B27(2) + I100(14) - I102(14)
   >= -1.9999768e+07
 c51: - 1e+07 B1(13) - 1e+07 B3(13) - 1e+07 B27(2) - I100(14) + I102(14)
   >= -2.9999694e+07
 c52: - 1e+07 B2(13) - 1e+07 B5(14) + 1e+07 B29(2) - I101(14) + I104(14)
   >= -1.9999815e+07
 c53: - 1e+07 B2(13) - 1e+07 B5(14) - 1e+07 B29(2) + I101(14) - I104(14)
   >= -2.9999723e+07
 c54: - 1e+07 B3(13) - 1e+07 B7(13) + 1e+07 B30(2) - I102(14) + I106(14)
   >= -1.9999388e+07
 c55: - 1e+07 B3(13) - 1e+07 B7(13) - 1e+07 B30(2) + I102(14) - I106(14)
   >= -2.9999282e+07
 c56: - 1e+07 B2(13) - 1e+07 B8(11) + 1e+07 B31(4) - I101(14) + I107(12)
   >= -1.9999832e+07
 c57: - 1e+07 B2(13) - 1e+07 B8(11) - 1e+07 B31(4) + I101(14) - I107(12)
   >= -2.9999882e+07
 c58: - 1e+07 B3(13) - 1e+07 B9(13) + 1e+07 B31(4) - I102(14) + I108(14)
   >= -1.9999802e+07
 c59: - 1e+07 B3(13) - 1e+07 B9(13) - 1e+07 B31(4) + I102(14) - I108(14)
   >= -2.9999636e+07
 c60: - 1e+07 B3(13) - 1e+07 B13(11) + 1e+07 B33(2) - I102(14) + I112(12)
   >= -1.9999785e+07
 c61: - 1e+07 B3(13) - 1e+07 B13(11) - 1e+07 B33(2) + I102(14) - I112(12)
   >= -2.999971e+07
 c62: - 1e+07 B2(13) - 1e+07 B14(13) + 1e+07 B34(2) - I101(14) + I113(14)
   >= -1.9999876e+07
 c63: - 1e+07 B2(13) - 1e+07 B14(13) - 1e+07 B34(2) + I101(14) - I113(14)
   >= -2.9999415e+07
 c64: - 1e+07 B2(13) - 1e+07 B17(14) + 1e+07 B35(2) - I101(14) + I116(14)
   >= -1.9999842e+07
 c65: - 1e+07 B2(13) - 1e+07 B17(14) - 1e+07 B35(2) + I101(14) - I116(14)
   >= -2.9999846e+07
 c66: - 1e+07 B2(13) - 1e+07 B5(14) + 1e+07 B37(2) + I101(14) - I104(14)
   >= -1.9999723e+07
 c67: - 1e+07 B2(13) - 1e+07 B5(14) - 1e+07 B37(2) - I101(14) + I104(14)
   >= -2.9999815e+07
 c68: - 1e+07 B5(14) - 1e+07 B8(11) + 1e+07 B40(2) - I104(14) + I107(12)
   >= -1.9999935e+07
 c69: - 1e+07 B5(14) - 1e+07 B8(11) - 1e+07 B40(2) + I104(14) - I107(12)
   >= -2.9999856e+07
 c70: - 1e+07 B4(8) - 1e+07 B10(8) + 1e+07 B41(2) - I103(8) + I109(8)
   >= -1.9999659e+07
 c71: - 1e+07 B4(8) - 1e+07 B10(8) - 1e+07 B41(2) + I103(8) - I109(8)
   >= -2.9999946e+07
 c72: - 1e+07 B5(14) - 1e+07 B14(13) + 1e+07 B43(2) - I104(14) + I113(14)
   >= -1.9999825e+07
 c73: - 1e+07 B5(14) - 1e+07 B14(13) - 1e+07 B43(2) + I104(14) - I113(14)
   >= -2.9999605e+07
 c74: - 1e+07 B4(8) - 1e+07 B16(8) + 1e+07 B44(4) - I103(8) + I115(8)
   >= -1.9999917e+07
 c75: - 1e+07 B4(8) - 1e+07 B16(8) - 1e+07 B44(4) + I103(8) - I115(8)
   >= -2.9999816e+07
 c76: - 1e+07 B5(14) - 1e+07 B17(14) + 1e+07 B44(4) - I104(14) + I116(14)
   >= -1.9999804e+07
 c77: - 1e+07 B5(14) - 1e+07 B17(14) - 1e+07 B44(4) + I104(14) - I116(14)
   >= -2.9999758e+07
 c78: - 1e+07 B7(13) - 1e+07 B9(13) + 1e+07 B49(2) - I106(14) + I108(14)
   >= -1.9999712e+07
 c79: - 1e+07 B7(13) - 1e+07 B9(13) - 1e+07 B49(2) + I106(14) - I108(14)
   >= -2.9999807e+07
 c80: - 1e+07 B6(13) - 1e+07 B11(14) + 1e+07 B50(2) - I105(14) + I110(14)
   >= -1.9999671e+07
 c81: - 1e+07 B6(13) - 1e+07 B11(14) - 1e+07 B50(2) + I105(14) - I110(14)
   >= -2.999968e+07
 c82: - 1e+07 B6(13) - 1e+07 B12(13) + 1e+07 B51(4) - I105(14) + I111(14)
   >= -1.9999539e+07
 c83: - 1e+07 B6(13) - 1e+07 B12(13) - 1e+07 B51(4) + I105(14) - I111(14)
   >= -2.9999883e+07
 c84: - 1e+07 B7(13) - 1e+07 B13(11) + 1e+07 B51(4) - I106(14) + I112(12)
   >= -1.999984e+07
 c85: - 1e+07 B7(13) - 1e+07 B13(11) - 1e+07 B51(4) + I106(14) - I112(12)
   >= -2.9999722e+07
 c86: - 1e+07 B6(13) - 1e+07 B15(13) + 1e+07 B52(2) - I105(14) + I114(14)
   >= -1.9999759e+07
 c87: - 1e+07 B6(13) - 1e+07 B15(13) - 1e+07 B52(2) + I105(14) - I114(14)
   >= -2.9999893e+07
 c88: - 1e+07 B7(13) - 1e+07 B9(13) + 1e+07 B57(2) + I106(14) - I108(14)
   >= -1.9999807e+07
 c89: - 1e+07 B7(13) - 1e+07 B9(13) - 1e+07 B57(2) - I106(14) + I108(14)
   >= -2.9999712e+07
 c90: - 1e+07 B9(13) - 1e+07 B13(11) + 1e+07 B60(2) - I108(14) + I112(12)
   >= -1.9999441e+07
 c91: - 1e+07 B9(13) - 1e+07 B13(11) - 1e+07 B60(2) + I108(14) - I112(12)
   >= -2.9999547e+07
 c92: - 1e+07 B8(11) - 1e+07 B14(13) + 1e+07 B61(2) - I107(12) + I113(14)
   >= -1.9999766e+07
 c93: - 1e+07 B8(11) - 1e+07 B14(13) - 1e+07 B61(2) + I107(12) - I113(14)
   >= -2.999957e+07
 c94: - 1e+07 B8(11) - 1e+07 B17(14) + 1e+07 B62(2) - I107(12) + I116(14)
   >= -1.999987e+07
 c95: - 1e+07 B8(11) - 1e+07 B17(14) - 1e+07 B62(2) + I107(12) - I116(14)
   >= -2.9999753e+07
 c96: - 1e+07 B6(13) - 1e+07 B11(14) + 1e+07 B66(2) + I105(14) - I110(14)
   >= -1.999968e+07
 c97: - 1e+07 B6(13) - 1e+07 B11(14) - 1e+07 B66(2) - I105(14) + I110(14)
   >= -2.9999671e+07
 c98: - 1e+07 B11(14) - 1e+07 B12(13) + 1e+07 B69(2) - I110(14) + I111(14)
   >= -1.9999846e+07
 c99: - 1e+07 B11(14) - 1e+07 B12(13) - 1e+07 B69(2) + I110(14) - I111(14)
   >= -2.9999744e+07
 c100: - 1e+07 B11(14) - 1e+07 B15(13) + 1e+07 B70(2) - I110(14) + I114(14)
   >= -1.999967e+07
 c101: - 1e+07 B11(14) - 1e+07 B15(13) - 1e+07 B70(2) + I110(14) - I114(14)
   >= -2.9999668e+07
 c102: - 1e+07 B10(8) - 1e+07 B16(8) + 1e+07 B71(2) - I109(8) + I115(8)
   >= -1.9999838e+07
 c103: - 1e+07 B10(8) - 1e+07 B16(8) - 1e+07 B71(2) + I109(8) - I115(8)
   >= -2.9999718e+07
 c104: - 1e+07 B12(13) - 1e+07 B15(13) + 1e+07 B79(2) - I111(14) + I114(14)
   >= -1.999922e+07
 c105: - 1e+07 B12(13) - 1e+07 B15(13) - 1e+07 B79(2) + I111(14) - I114(14)
   >= -2.9999797e+07
 c106: - 1e+07 B12(13) - 1e+07 B15(13) + 1e+07 B87(2) + I111(14) - I114(14)
   >= -1.9999797e+07
 c107: - 1e+07 B12(13) - 1e+07 B15(13) - 1e+07 B87(2) - I111(14) + I114(14)
   >= -2.999922e+07
 c108: - 1e+07 B14(13) - 1e+07 B17(14) + 1e+07 B89(2) - I113(14) + I116(14)
   >= -1.9999822e+07
 c109: - 1e+07 B14(13) - 1e+07 B17(14) - 1e+07 B89(2) + I113(14) - I116(14)
   >= -2.9999888e+07
 c110: - 1e+07 B14(13) - 1e+07 B17(14) + 1e+07 B97(2) + I113(14) - I116(14)
   >= -1.9999888e+07
 c111: - 1e+07 B14(13) - 1e+07 B17(14) - 1e+07 B97(2) - I113(14) + I116(14)
   >= -2.9999822e+07
 c112: I99(12) >= 0
 c113: I100(14) >= 0
 c114: I101(14) >= 0
 c115: I102(14) >= 0
 c116: - 480 B4(8) + I103(8) >= 0
 c117: I103(8) >= 0
 c118: - 480 B5(14) + I104(14) >= 0
 c119: I104(14) >= 0
 c120: I105(14) >= 0
 c121: I106(14) >= 0
 c122: I107(12) >= 0
 c123: I108(14) >= 0
 c124: - 480 B10(8) + I109(8) >= 0
 c125: I109(8) >= 0
 c126: - 480 B11(14) + I110(14) >= 0
 c127: I110(14) >= 0
 c128: I111(14) >= 0
 c129: I112(12) >= 0
 c130: I113(14) >= 0
 c131: I114(14) >= 0
 c132: - 480 B16(8) + I115(8) >= 0
 c133: I115(8) >= 0
 c134: - 480 B17(14) + I116(14) >= 0
 c135: I116(14) >= 0
Bounds
Binaries
 B0(11) B1(13) B2(13) B3(13) B4(8) B5(14) B6(13) B7(13) B8(11) B9(13)
 B10(8) B11(14) B12(13) B13(11) B14(13) B15(13) B16(8) B17(14) B18(0)
 B19(2) B20(0) B21(4) B22(2) B23(2) B24(4) B25(2) B26(0) B27(2) B28(0)
 B29(2) B30(2) B31(4) B32(0) B33(2) B34(2) B35(2) B36(0) B37(2) B38(0)
 B39(0) B40(2) B41(2) B42(0) B43(2) B44(4) B45(0) B46(0) B47(0) B48(0)
 B49(2) B50(2) B51(4) B52(2) B53(0) B54(0) B55(0) B56(0) B57(2) B58(0)
 B59(0) B60(2) B61(2) B62(2) B63(0) B64(0) B65(0) B66(2) B67(0) B68(0)
 B69(2) B70(2) B71(2) B72(0) B73(0) B74(0) B75(0) B76(0) B77(0) B78(0)
 B79(2) B80(0) B81(0) B82(0) B83(0) B84(0) B85(0) B86(0) B87(2) B88(0)
 B89(2) B90(0) B91(0) B92(0) B93(0) B94(0) B95(0) B96(0) B97(2) B98(0)
Generals
 I99(12) I100(14) I101(14) I102(14) I103(8) I104(14) I105(14) I106(14)
 I107(12) I108(14) I109(8) I110(14) I111(14) I112(12) I113(14) I114(14)
 I115(8) I116(14) I117(1)
End
